20 64 
1 5 1
1 6 1
1 8 1
1 11 1
1 18 1
2 5 1
2 6 1
2 7 1
2 8 1
2 9 1
2 10 1
2 12 1
2 14 1
3 5 1
3 6 1
3 9 1
3 11 1
3 14 1
3 16 1
4 5 1
4 7 1
4 10 1
4 13 1
4 15 1
4 18 1
4 20 1
5 6 1
5 7 1
5 9 1
5 11 1
5 13 1
5 17 1
5 18 1
6 7 1
6 8 1
6 9 1
6 10 1
6 12 1
6 14 1
6 15 1
7 8 1
7 12 1
7 13 1
7 14 1
8 11 1
8 16 1
9 10 1
9 12 1
9 15 1
9 17 1
9 19 1
10 20 1
11 13 1
11 19 1
12 15 1
12 16 1
12 19 1
12 20 1
14 17 1
15 16 1
15 17 1
15 18 1
18 19 1
18 20 1
